% Logging successfully configured
=====UNSATISFIABLE=====
% time elapsed: 0.22 s
%%%mzn-stat: initTime=0.001263126
%%%mzn-stat: nodes=0
%%%mzn-stat: restarts=0
%%%mzn-stat: peakDepth=0
%%%mzn-stat: solveTime=0
%%%mzn-stat: variables=133
%%%mzn-stat: propagators=2
%%%mzn-stat: failures=1
%%%mzn-stat: propagations=2
%%%mzn-stat: nogoods=1
%%%mzn-stat: numAtomicConstraintsPropagated=0
%%%mzn-stat: circuitNumber1PropagationsTotal=1
%%%mzn-stat: circuitNumber1CircuitConflicts=0
%%%mzn-stat: circuitNumber1AlldiffConflicts=1
%%%mzn-stat: circuitNumber1TotalFixedEdgesAtConflict=2
%%%mzn-stat: circuitNumber1NumberOfConflicts=1
%%%mzn-stat: circuitNumber1GacPrunings=0
%%%mzn-stat: circuitNumber1PropagationsThatGacPruned=0
%%%mzn-stat: circuitNumber1TotalPruningHallSetSize=0
%%%mzn-stat: circuitNumber1NumberOfPruningExplanations=0
%%%mzn-stat: circuitNumber1MaxPruningHallSetSize=0
%%%mzn-stat: circuitNumber1TotalSccSizeAtPruning=0
%%%mzn-stat: circuitNumber1NumberOfSccPruningCalls=0
%%%mzn-stat: circuitNumber1TotalVarsInvolvedInPruning=0
%%%mzn-stat: circuitNumber1MaxValuesPrunedFromSingleVar=0
%%%mzn-stat: circuitNumber1HallCircuitChecks=0
%%%mzn-stat: circuitNumber1HallCircuitPrunings=0
%%%mzn-stat: circuitNumber1CircuitPreventPrunings=0
%%%mzn-stat: AverageConflictSize=0
%%%mzn-stat: NumUnitNogoodsLearned=0
%%%mzn-stat: AverageLearnedNogoodLength=0
%%%mzn-stat: AverageBacktrackAmount=0
%%%mzn-stat: AverageLbd=0
%%%mzn-stat: 2AutonomousSearchNumBackupCalled=0
%%%mzn-stat: 2AutonomousSearchNumPredicatesRemoved=0
%%%mzn-stat: 2AutonomousSearchNumCalls=0
%%%mzn-stat: 2AutonomousSearchNumPredicatesAdded=0
%%%mzn-stat: 2AutonomousSearchAverageSizeOfHeap=0
%%%mzn-stat: 2AutonomousSearchNumAssignedPredicatesEncountered=0
%%%mzn-stat-end
